========================================================== 
File name: C:\DEGR\assets\definitions\MSRCPSP_Gen\100_20_64_5_B.def
Creation date: Wed May 03 10:38:42 CEST 2023
Website: http://imopse.ii.pwr.edu.pl/ 
Reference: 
Myszkowski P. B., Skowronski M. E., Olech L., Oslizlo K., 
Hybrid Ant Colony Optimization in solving Multi-Skill Resource-Constrained Project Scheduling Problem, 
Soft Computing, DOI: DOI 10.1007/s00500-014-1455-x 
========================================================== 
General characteristics: 
Tasks: 100
Resources: 20
Precedence relations: 64
Number of skill types: 5
========================================================== 
ResourceID 	 Salary 	 Skills 
1	 	 	57.8	 	 Q0: 2 	  Q2: 3 	  Q1: 2 	  Q4: 3 	 
2	 	 	70.9	 	 Q0: 0 	  Q3: 0 	  Q2: 1 	  Q1: 0 	 
3	 	 	57.7	 	 Q0: 3 	  Q3: 3 	  Q4: 1 	 
4	 	 	11.2	 	 Q3: 0 	  Q2: 2 	  Q0: 0 	 
5	 	 	83.7	 	 Q4: 0 	  Q2: 3 	  Q0: 2 	  Q1: 1 	 
6	 	 	53.3	 	 Q3: 2 	  Q4: 0 	  Q2: 3 	 
7	 	 	12.7	 	 Q1: 2 	 
8	 	 	29.6	 	 Q2: 3 	  Q1: 2 	 
9	 	 	39.3	 	 Q4: 1 	  Q2: 1 	  Q3: 0 	 
10	 	 	56.1	 	 Q0: 3 	  Q3: 2 	  Q1: 3 	  Q4: 2 	 
11	 	 	98.4	 	 Q4: 2 	  Q3: 1 	 
12	 	 	91.0	 	 Q2: 2 	  Q4: 3 	  Q1: 0 	  Q3: 2 	 
13	 	 	37.2	 	 Q4: 3 	 
14	 	 	40.5	 	 Q1: 1 	  Q2: 0 	  Q4: 2 	  Q3: 2 	 
15	 	 	43.2	 	 Q3: 3 	  Q1: 0 	  Q4: 1 	 
16	 	 	10.0	 	 Q1: 2 	  Q2: 2 	  Q0: 1 	  Q3: 0 	 
17	 	 	75.4	 	 Q4: 3 	  Q1: 3 	 
18	 	 	97.7	 	 Q3: 3 	  Q0: 3 	  Q2: 3 	  Q4: 3 	 
19	 	 	94.2	 	 Q3: 1 	  Q1: 1 	 
20	 	 	67.6	 	 Q2: 2 	 
========================================================== 
TaskID 	 Duration 	 Skill 	 Predecessor IDs 
1	14	Q1:	1
2	37	Q4:	0
3	24	Q2:	0
4	21	Q0:	0
5	12	Q4:	3
6	13	Q3:	0
7	31	Q3:	2
8	39	Q2:	2
9	36	Q4:	0
10	16	Q0:	0
11	26	Q1:	3
12	33	Q3:	3
13	32	Q2:	2
14	39	Q0:	3
15	32	Q4:	3	4
16	38	Q3:	2	6
17	26	Q2:	0
18	17	Q1:	3	1
19	36	Q0:	1
20	25	Q0:	1
21	13	Q2:	3
22	37	Q0:	0
23	13	Q3:	3
24	12	Q2:	2
25	40	Q0:	1	21
26	33	Q4:	3
27	33	Q2:	0
28	26	Q3:	3
29	25	Q1:	3
30	34	Q3:	0
31	25	Q3:	1	15
32	24	Q2:	3
33	26	Q2:	0
34	37	Q3:	3
35	33	Q0:	1
36	9	Q1:	1	31	4
37	32	Q1:	0
38	21	Q1:	0
39	29	Q0:	2	21
40	19	Q2:	1	10	38
41	10	Q1:	3
42	40	Q2:	0	21
43	38	Q4:	0
44	13	Q4:	1
45	27	Q1:	2	20
46	11	Q4:	1	44
47	33	Q4:	3
48	12	Q3:	2
49	11	Q0:	3	30
50	39	Q4:	3
51	34	Q4:	0	9	49
52	38	Q3:	3
53	25	Q3:	0	46	37
54	32	Q4:	3	24
55	33	Q4:	1	46
56	10	Q2:	3
57	9	Q3:	3
58	16	Q1:	2	51
59	15	Q0:	1	10	37
60	40	Q1:	2	32
61	16	Q4:	3
62	19	Q1:	2	23
63	26	Q1:	2	47
64	40	Q1:	2	30	52
65	29	Q0:	0
66	28	Q3:	3	45	8
67	37	Q0:	2	5	44
68	19	Q2:	1
69	23	Q4:	1
70	16	Q3:	2	47	5
71	31	Q3:	0	65	18	19
72	34	Q0:	2
73	38	Q0:	2
74	10	Q2:	3	5
75	36	Q0:	0	33
76	31	Q0:	2	13	32
77	23	Q3:	3
78	29	Q0:	1
79	19	Q4:	0
80	18	Q3:	3
81	27	Q2:	2	53
82	17	Q0:	2
83	21	Q3:	0
84	15	Q3:	2	71	48	16
85	35	Q0:	2
86	10	Q3:	1	55	71
87	29	Q2:	0
88	19	Q2:	0	81
89	18	Q0:	0	53
90	22	Q3:	1
91	39	Q2:	0	3
92	21	Q0:	2
93	39	Q1:	1	40	6
94	15	Q4:	2	9
95	30	Q4:	3	19	65
96	39	Q3:	1
97	34	Q0:	0	2
98	10	Q1:	3	51
99	28	Q3:	2	43	35	40	36
100	29	Q4:	0	81	37	59
========================================================== 